SAT
-1 -100 -99 98 18 -96 -84 -81 59 -69 -50 -21 97 47 75 -43 -60 -63 67 -40 -51 -61 -4 55 -49 -74 8 -38 -85 33 -35 -95 46 -11 -89 -90 -66 72 20 -12 34 -58 3 -14 -2 -56 -30 -53 57 -45 -26 -79 39 -71 32 -15 -19 -48 -25 7 -87 -82 -80 -92 13 -28 -27 -9 5 -70 -29 -64 -62 -68 -91 -65 52 44 83 88 -36 -17 6 -23 24 -16 22 86 -93 -54 73 -37 42 -77 10 -94 -78 76 41 -31 0
